200
1000
378
376
373
372
372
372
372
370
367
367
362
358
355
355
354
350
346
344
340
340
339
336
335
334
334
334
334
333
329
328
321
318
317
317
316
316
311
308
306
303
302
300
299
299
298
297
294
293
292
285
278
278
277
276
275
274
270
268
267
263
261
259
255
253
252
251
251
251
246
244
242
241
240
239
238
238
237
235
234
233
232
232
230
225
224
222
216
215
213
210
204
197
193
185
176
176
174
173
172
172
171
168
165
160
160
158
156
156
154
153
152
151
151
151
150
148
146
145
144
143
143
140
140
138
138
135
134
133
128
127
126
122
122
120
119
119
115
115
113
111
110
110
107
106
106
105
105
103
103
102
102
102
101
99
99
98
94
93
93
93
92
91
90
89
89
88
87
85
82
81
81
79
78
78
75
75
72
72
71
69
66
62
59
58
57
56
52
52
48
45
41
41
37
33
31
30
29
26
24
23
